
Gurobi 7.0.2 (linux64) logging started Thu Jun 22 13:28:37 2017

Optimize a model with 1 rows, 4 columns and 4 nonzeros
Variable types: 0 continuous, 4 integer (4 binary)
Coefficient statistics:
  Matrix range     [1e+00, 1e+00]
  Objective range  [1e+00, 1e+00]
  Bounds range     [1e+00, 1e+00]
  RHS range        [1e+00, 1e+00]
Found heuristic solution: objective 1
Presolve removed 1 rows and 4 columns
Presolve time: 0.00s
Presolve: All rows and columns removed

Explored 0 nodes (0 simplex iterations) in 0.00 seconds
Thread count was 1 (of 4 available processors)

Solution count 1: 1 
Pool objective bound 1

Optimal solution found (tolerance 1.00e-04)
Best objective 1.000000000000e+00, best bound 1.000000000000e+00, gap 0.0000%

Gurobi 7.0.2 (linux64) logging started Thu Jun 22 13:28:37 2017

Optimize a model with 48 rows, 10 columns and 340 nonzeros
Variable types: 0 continuous, 10 integer (10 binary)
Coefficient statistics:
  Matrix range     [1e+00, 1e+00]
  Objective range  [1e+00, 1e+00]
  Bounds range     [1e+00, 1e+00]
  RHS range        [1e+00, 1e+00]
Found heuristic solution: objective 3
Presolve removed 31 rows and 0 columns
Presolve time: 0.00s
Presolved: 17 rows, 10 columns, 100 nonzeros
Variable types: 0 continuous, 10 integer (10 binary)

Root relaxation: cutoff, 9 iterations, 0.00 seconds

    Nodes    |    Current Node    |     Objective Bounds      |     Work
 Expl Unexpl |  Obj  Depth IntInf | Incumbent    BestBd   Gap | It/Node Time

     0     0     cutoff    0         3.00000    2.00000  33.3%     -    0s

Explored 0 nodes (9 simplex iterations) in 0.00 seconds
Thread count was 4 (of 4 available processors)

Solution count 1: 3 
Pool objective bound 3

Optimal solution found (tolerance 1.00e-04)
Best objective 3.000000000000e+00, best bound 3.000000000000e+00, gap 0.0000%

Gurobi 7.0.2 (linux64) logging started Thu Jun 22 13:28:37 2017

Optimize a model with 1 rows, 7 columns and 7 nonzeros
Variable types: 0 continuous, 7 integer (7 binary)
Coefficient statistics:
  Matrix range     [1e+00, 1e+00]
  Objective range  [1e+00, 1e+00]
  Bounds range     [1e+00, 1e+00]
  RHS range        [1e+00, 1e+00]
Found heuristic solution: objective 1
Presolve removed 1 rows and 7 columns
Presolve time: 0.00s
Presolve: All rows and columns removed

Explored 0 nodes (0 simplex iterations) in 0.00 seconds
Thread count was 1 (of 4 available processors)

Solution count 1: 1 
Pool objective bound 1

Optimal solution found (tolerance 1.00e-04)
Best objective 1.000000000000e+00, best bound 1.000000000000e+00, gap 0.0000%

Gurobi 7.0.2 (linux64) logging started Thu Jun 22 13:28:37 2017

Optimize a model with 23 rows, 8 columns and 128 nonzeros
Variable types: 0 continuous, 8 integer (8 binary)
Coefficient statistics:
  Matrix range     [1e+00, 1e+00]
  Objective range  [1e+00, 1e+00]
  Bounds range     [1e+00, 1e+00]
  RHS range        [1e+00, 1e+00]
Found heuristic solution: objective 3
Presolve removed 13 rows and 0 columns
Presolve time: 0.00s
Presolved: 10 rows, 8 columns, 48 nonzeros
Variable types: 0 continuous, 8 integer (8 binary)

Root relaxation: objective 2.000000e+00, 4 iterations, 0.00 seconds

    Nodes    |    Current Node    |     Objective Bounds      |     Work
 Expl Unexpl |  Obj  Depth IntInf | Incumbent    BestBd   Gap | It/Node Time

     0     0    2.00000    0    4    3.00000    2.00000  33.3%     -    0s
     0     0    2.00000    0    4    3.00000    2.00000  33.3%     -    0s
     0     0    2.00000    0    4    3.00000    2.00000  33.3%     -    0s
     0     0    2.00000    0    4    3.00000    2.00000  33.3%     -    0s
     0     0    2.00000    0    4    3.00000    2.00000  33.3%     -    0s

Explored 0 nodes (35 simplex iterations) in 0.00 seconds
Thread count was 4 (of 4 available processors)

Solution count 1: 3 
Pool objective bound 3

Optimal solution found (tolerance 1.00e-04)
Best objective 3.000000000000e+00, best bound 3.000000000000e+00, gap 0.0000%

Gurobi 7.0.2 (linux64) logging started Thu Jun 22 13:28:37 2017

Optimize a model with 12 rows, 6 columns and 54 nonzeros
Variable types: 0 continuous, 6 integer (6 binary)
Coefficient statistics:
  Matrix range     [1e+00, 1e+00]
  Objective range  [1e+00, 1e+00]
  Bounds range     [1e+00, 1e+00]
  RHS range        [1e+00, 1e+00]
Found heuristic solution: objective 2
Presolve removed 7 rows and 0 columns
Presolve time: 0.00s
Presolved: 5 rows, 6 columns, 18 nonzeros
Variable types: 0 continuous, 6 integer (6 binary)

Root relaxation: cutoff, 1 iterations, 0.00 seconds

    Nodes    |    Current Node    |     Objective Bounds      |     Work
 Expl Unexpl |  Obj  Depth IntInf | Incumbent    BestBd   Gap | It/Node Time

     0     0     cutoff    0         2.00000    1.00000  50.0%     -    0s

Explored 0 nodes (1 simplex iterations) in 0.00 seconds
Thread count was 4 (of 4 available processors)

Solution count 1: 2 
Pool objective bound 2

Optimal solution found (tolerance 1.00e-04)
Best objective 2.000000000000e+00, best bound 2.000000000000e+00, gap 0.0000%

Gurobi 7.0.2 (linux64) logging started Thu Jun 22 13:28:37 2017

Optimize a model with 60 rows, 6 columns and 120 nonzeros
Variable types: 0 continuous, 6 integer (6 binary)
Coefficient statistics:
  Matrix range     [1e+00, 1e+00]
  Objective range  [1e+00, 1e+00]
  Bounds range     [1e+00, 1e+00]
  RHS range        [1e+00, 1e+00]
Found heuristic solution: objective 3
Presolve removed 60 rows and 6 columns
Presolve time: 0.00s
Presolve: All rows and columns removed

Explored 0 nodes (0 simplex iterations) in 0.00 seconds
Thread count was 1 (of 4 available processors)

Solution count 1: 3 
Pool objective bound 3

Optimal solution found (tolerance 1.00e-04)
Best objective 3.000000000000e+00, best bound 3.000000000000e+00, gap 0.0000%

Gurobi 7.0.2 (linux64) logging started Thu Jun 22 13:28:37 2017

Optimize a model with 13 rows, 9 columns and 80 nonzeros
Variable types: 0 continuous, 9 integer (9 binary)
Coefficient statistics:
  Matrix range     [1e+00, 1e+00]
  Objective range  [1e+00, 1e+00]
  Bounds range     [1e+00, 1e+00]
  RHS range        [1e+00, 1e+00]
Found heuristic solution: objective 2
Presolve removed 8 rows and 4 columns
Presolve time: 0.00s
Presolved: 5 rows, 5 columns, 16 nonzeros
Variable types: 0 continuous, 5 integer (5 binary)

Root relaxation: cutoff, 2 iterations, 0.00 seconds

    Nodes    |    Current Node    |     Objective Bounds      |     Work
 Expl Unexpl |  Obj  Depth IntInf | Incumbent    BestBd   Gap | It/Node Time

     0     0     cutoff    0         2.00000    1.00000  50.0%     -    0s

Explored 0 nodes (2 simplex iterations) in 0.00 seconds
Thread count was 4 (of 4 available processors)

Solution count 1: 2 
Pool objective bound 2

Optimal solution found (tolerance 1.00e-04)
Best objective 2.000000000000e+00, best bound 2.000000000000e+00, gap 0.0000%

Gurobi 7.0.2 (linux64) logging started Thu Jun 22 13:28:37 2017

Optimize a model with 3485 rows, 16 columns and 8630 nonzeros
Variable types: 0 continuous, 16 integer (16 binary)
Coefficient statistics:
  Matrix range     [1e+00, 1e+00]
  Objective range  [1e+00, 1e+00]
  Bounds range     [1e+00, 1e+00]
  RHS range        [1e+00, 1e+00]
Found heuristic solution: objective 4
Presolve removed 3470 rows and 5 columns
Presolve time: 0.00s
Presolved: 15 rows, 11 columns, 73 nonzeros
Variable types: 0 continuous, 11 integer (11 binary)

Root relaxation: cutoff, 4 iterations, 0.00 seconds

    Nodes    |    Current Node    |     Objective Bounds      |     Work
 Expl Unexpl |  Obj  Depth IntInf | Incumbent    BestBd   Gap | It/Node Time

     0     0     cutoff    0         4.00000    3.00001  25.0%     -    0s

Explored 0 nodes (4 simplex iterations) in 0.00 seconds
Thread count was 4 (of 4 available processors)

Solution count 1: 4 
Pool objective bound 4

Optimal solution found (tolerance 1.00e-04)
Best objective 4.000000000000e+00, best bound 4.000000000000e+00, gap 0.0000%

Gurobi 7.0.2 (linux64) logging started Thu Jun 22 13:28:37 2017

Optimize a model with 5 rows, 4 columns and 16 nonzeros
Variable types: 0 continuous, 4 integer (4 binary)
Coefficient statistics:
  Matrix range     [1e+00, 1e+00]
  Objective range  [1e+00, 1e+00]
  Bounds range     [1e+00, 1e+00]
  RHS range        [1e+00, 1e+00]
Found heuristic solution: objective 2
Presolve removed 1 rows and 0 columns
Presolve time: 0.00s
Presolved: 4 rows, 4 columns, 12 nonzeros
Variable types: 0 continuous, 4 integer (4 binary)

Root relaxation: cutoff, 3 iterations, 0.00 seconds

    Nodes    |    Current Node    |     Objective Bounds      |     Work
 Expl Unexpl |  Obj  Depth IntInf | Incumbent    BestBd   Gap | It/Node Time

     0     0     cutoff    0         2.00000    1.00000  50.0%     -    0s

Explored 0 nodes (3 simplex iterations) in 0.00 seconds
Thread count was 4 (of 4 available processors)

Solution count 1: 2 
Pool objective bound 2

Optimal solution found (tolerance 1.00e-04)
Best objective 2.000000000000e+00, best bound 2.000000000000e+00, gap 0.0000%

Gurobi 7.0.2 (linux64) logging started Thu Jun 22 13:28:37 2017

Optimize a model with 16 rows, 5 columns and 55 nonzeros
Variable types: 0 continuous, 5 integer (5 binary)
Coefficient statistics:
  Matrix range     [1e+00, 1e+00]
  Objective range  [1e+00, 1e+00]
  Bounds range     [1e+00, 1e+00]
  RHS range        [1e+00, 1e+00]
Found heuristic solution: objective 3
Presolve removed 6 rows and 0 columns
Presolve time: 0.00s
Presolved: 10 rows, 5 columns, 30 nonzeros
Variable types: 0 continuous, 5 integer (5 binary)

Root relaxation: objective 1.666667e+00, 5 iterations, 0.00 seconds

    Nodes    |    Current Node    |     Objective Bounds      |     Work
 Expl Unexpl |  Obj  Depth IntInf | Incumbent    BestBd   Gap | It/Node Time

     0     0    1.66667    0    5    3.00000    1.66667  44.4%     -    0s
     0     0    2.00000    0    4    3.00000    2.00000  33.3%     -    0s
     0     0    2.00000    0    4    3.00000    2.00000  33.3%     -    0s

Cutting planes:
  MIR: 1

Explored 0 nodes (12 simplex iterations) in 0.00 seconds
Thread count was 4 (of 4 available processors)

Solution count 1: 3 
Pool objective bound 3

Optimal solution found (tolerance 1.00e-04)
Best objective 3.000000000000e+00, best bound 3.000000000000e+00, gap 0.0000%

Gurobi 7.0.2 (linux64) logging started Thu Jun 22 13:28:37 2017

Optimize a model with 99 rows, 7 columns and 399 nonzeros
Variable types: 0 continuous, 7 integer (7 binary)
Coefficient statistics:
  Matrix range     [1e+00, 1e+00]
  Objective range  [1e+00, 1e+00]
  Bounds range     [1e+00, 1e+00]
  RHS range        [1e+00, 1e+00]
Found heuristic solution: objective 5
Presolve removed 64 rows and 0 columns
Presolve time: 0.00s
Presolved: 35 rows, 7 columns, 105 nonzeros
Variable types: 0 continuous, 7 integer (7 binary)

Root relaxation: objective 2.333333e+00, 10 iterations, 0.00 seconds

    Nodes    |    Current Node    |     Objective Bounds      |     Work
 Expl Unexpl |  Obj  Depth IntInf | Incumbent    BestBd   Gap | It/Node Time

     0     0    2.33333    0    7    5.00000    2.33333  53.3%     -    0s
     0     0    3.00000    0    7    5.00000    3.00000  40.0%     -    0s
     0     0    3.00000    0    6    5.00000    3.00000  40.0%     -    0s
     0     0    3.00000    0    7    5.00000    3.00000  40.0%     -    0s
     0     2    3.00000    0    7    5.00000    3.00000  40.0%     -    0s

Explored 5 nodes (48 simplex iterations) in 0.01 seconds
Thread count was 4 (of 4 available processors)

Solution count 1: 5 
Pool objective bound 5

Optimal solution found (tolerance 1.00e-04)
Best objective 5.000000000000e+00, best bound 5.000000000000e+00, gap 0.0000%

Gurobi 7.0.2 (linux64) logging started Thu Jun 22 13:28:37 2017

Optimize a model with 12 rows, 6 columns and 24 nonzeros
Variable types: 0 continuous, 6 integer (6 binary)
Coefficient statistics:
  Matrix range     [1e+00, 1e+00]
  Objective range  [1e+00, 1e+00]
  Bounds range     [1e+00, 1e+00]
  RHS range        [1e+00, 1e+00]
Found heuristic solution: objective 1
Presolve removed 12 rows and 6 columns
Presolve time: 0.00s
Presolve: All rows and columns removed

Explored 0 nodes (0 simplex iterations) in 0.00 seconds
Thread count was 1 (of 4 available processors)

Solution count 1: 1 
Pool objective bound 1

Optimal solution found (tolerance 1.00e-04)
Best objective 1.000000000000e+00, best bound 1.000000000000e+00, gap 0.0000%

Gurobi 7.0.2 (linux64) logging started Thu Jun 22 13:28:37 2017

Optimize a model with 0 rows, 6 columns and 0 nonzeros
Variable types: 0 continuous, 6 integer (6 binary)
Coefficient statistics:
  Matrix range     [0e+00, 0e+00]
  Objective range  [1e+00, 1e+00]
  Bounds range     [1e+00, 1e+00]
  RHS range        [0e+00, 0e+00]
Found heuristic solution: objective 0

Explored 0 nodes (0 simplex iterations) in 0.00 seconds
Thread count was 1 (of 4 available processors)

Solution count 1: 0 
Pool objective bound 0

Optimal solution found (tolerance 1.00e-04)
Best objective 0.000000000000e+00, best bound 0.000000000000e+00, gap 0.0000%

Gurobi 7.0.2 (linux64) logging started Thu Jun 22 13:28:37 2017

Optimize a model with 47 rows, 10 columns and 330 nonzeros
Variable types: 0 continuous, 10 integer (10 binary)
Coefficient statistics:
  Matrix range     [1e+00, 1e+00]
  Objective range  [1e+00, 1e+00]
  Bounds range     [1e+00, 1e+00]
  RHS range        [1e+00, 1e+00]
Found heuristic solution: objective 3
Presolve removed 25 rows and 0 columns
Presolve time: 0.00s
Presolved: 22 rows, 10 columns, 120 nonzeros
Variable types: 0 continuous, 10 integer (10 binary)

Root relaxation: objective 2.000000e+00, 10 iterations, 0.00 seconds

    Nodes    |    Current Node    |     Objective Bounds      |     Work
 Expl Unexpl |  Obj  Depth IntInf | Incumbent    BestBd   Gap | It/Node Time

     0     0    2.00000    0    4    3.00000    2.00000  33.3%     -    0s
     0     0    2.00000    0    6    3.00000    2.00000  33.3%     -    0s

Cutting planes:
  Zero half: 1

Explored 0 nodes (28 simplex iterations) in 0.00 seconds
Thread count was 4 (of 4 available processors)

Solution count 1: 3 
Pool objective bound 3

Optimal solution found (tolerance 1.00e-04)
Best objective 3.000000000000e+00, best bound 3.000000000000e+00, gap 0.0000%

Gurobi 7.0.2 (linux64) logging started Thu Jun 22 13:28:37 2017

Optimize a model with 1 rows, 3 columns and 3 nonzeros
Variable types: 0 continuous, 3 integer (3 binary)
Coefficient statistics:
  Matrix range     [1e+00, 1e+00]
  Objective range  [1e+00, 1e+00]
  Bounds range     [1e+00, 1e+00]
  RHS range        [1e+00, 1e+00]
Found heuristic solution: objective 1
Presolve removed 1 rows and 3 columns
Presolve time: 0.00s
Presolve: All rows and columns removed

Explored 0 nodes (0 simplex iterations) in 0.00 seconds
Thread count was 1 (of 4 available processors)

Solution count 1: 1 
Pool objective bound 1

Optimal solution found (tolerance 1.00e-04)
Best objective 1.000000000000e+00, best bound 1.000000000000e+00, gap 0.0000%

Gurobi 7.0.2 (linux64) logging started Thu Jun 22 13:28:37 2017

Optimize a model with 61 rows, 12 columns and 528 nonzeros
Variable types: 0 continuous, 12 integer (12 binary)
Coefficient statistics:
  Matrix range     [1e+00, 1e+00]
  Objective range  [1e+00, 1e+00]
  Bounds range     [1e+00, 1e+00]
  RHS range        [1e+00, 1e+00]
Found heuristic solution: objective 4
Presolve removed 51 rows and 0 columns
Presolve time: 0.00s
Presolved: 10 rows, 12 columns, 52 nonzeros
Variable types: 0 continuous, 12 integer (12 binary)

Root relaxation: cutoff, 3 iterations, 0.00 seconds

    Nodes    |    Current Node    |     Objective Bounds      |     Work
 Expl Unexpl |  Obj  Depth IntInf | Incumbent    BestBd   Gap | It/Node Time

     0     0     cutoff    0         4.00000    3.00001  25.0%     -    0s

Explored 0 nodes (3 simplex iterations) in 0.00 seconds
Thread count was 4 (of 4 available processors)

Solution count 1: 4 
Pool objective bound 4

Optimal solution found (tolerance 1.00e-04)
Best objective 4.000000000000e+00, best bound 4.000000000000e+00, gap 0.0000%

Gurobi 7.0.2 (linux64) logging started Thu Jun 22 13:29:58 2017


Gurobi 7.0.2 (linux64) logging started Thu Jun 22 13:34:58 2017


Gurobi 7.0.2 (linux64) logging started Thu Jun 22 13:39:59 2017


Gurobi 7.0.2 (linux64) logging started Thu Jun 22 13:44:59 2017


Gurobi 7.0.2 (linux64) logging started Thu Jun 22 13:49:59 2017


Gurobi 7.0.2 (linux64) logging started Thu Jun 22 13:54:59 2017

Optimize a model with 3341 rows, 74 columns and 95605 nonzeros
Variable types: 0 continuous, 74 integer (74 binary)
Coefficient statistics:
  Matrix range     [1e+00, 1e+00]
  Objective range  [1e+00, 1e+00]
  Bounds range     [1e+00, 1e+00]
  RHS range        [1e+00, 1e+00]
Found heuristic solution: objective 15
Presolve removed 3341 rows and 74 columns
Presolve time: 0.04s
Presolve: All rows and columns removed

Explored 0 nodes (0 simplex iterations) in 0.05 seconds
Thread count was 1 (of 4 available processors)

Solution count 1: 8 
Pool objective bound 8

Optimal solution found (tolerance 1.00e-04)
Best objective 8.000000000000e+00, best bound 8.000000000000e+00, gap 0.0000%

Gurobi 7.0.2 (linux64) logging started Thu Jun 22 13:55:09 2017


Gurobi 7.0.2 (linux64) logging started Thu Jun 22 14:00:09 2017

Optimize a model with 3449 rows, 70 columns and 119932 nonzeros
Variable types: 0 continuous, 70 integer (70 binary)
Coefficient statistics:
  Matrix range     [1e+00, 1e+00]
  Objective range  [1e+00, 1e+00]
  Bounds range     [1e+00, 1e+00]
  RHS range        [1e+00, 1e+00]
Found heuristic solution: objective 10
Presolve removed 3424 rows and 54 columns
Presolve time: 0.07s
Presolved: 25 rows, 16 columns, 188 nonzeros
Variable types: 0 continuous, 16 integer (16 binary)

Root relaxation: objective 7.000000e+00, 6 iterations, 0.00 seconds

    Nodes    |    Current Node    |     Objective Bounds      |     Work
 Expl Unexpl |  Obj  Depth IntInf | Incumbent    BestBd   Gap | It/Node Time

     0     0    7.00000    0    4   10.00000    7.00000  30.0%     -    0s
H    0     0                       8.0000000    7.00000  12.5%     -    0s
     0     0    7.00000    0    6    8.00000    7.00000  12.5%     -    0s
     0     0    7.00000    0    6    8.00000    7.00000  12.5%     -    0s
     0     0    7.00000    0    4    8.00000    7.00000  12.5%     -    0s
     0     0    7.00000    0    7    8.00000    7.00000  12.5%     -    0s

Cutting planes:
  Gomory: 1
  MIR: 1
  Zero half: 1

Explored 0 nodes (18 simplex iterations) in 0.08 seconds
Thread count was 4 (of 4 available processors)

Solution count 2: 8 10 
Pool objective bound 8

Optimal solution found (tolerance 1.00e-04)
Best objective 8.000000000000e+00, best bound 8.000000000000e+00, gap 0.0000%

Gurobi 7.0.2 (linux64) logging started Thu Jun 22 14:00:21 2017


Gurobi 7.0.2 (linux64) logging started Thu Jun 22 14:05:21 2017


Gurobi 7.0.2 (linux64) logging started Thu Jun 22 14:10:21 2017


Gurobi 7.0.2 (linux64) logging started Thu Jun 22 14:15:21 2017


Gurobi 7.0.2 (linux64) logging started Thu Jun 22 14:20:21 2017

Optimize a model with 70351 rows, 57 columns and 2257527 nonzeros
Variable types: 0 continuous, 57 integer (57 binary)
Coefficient statistics:
  Matrix range     [1e+00, 1e+00]
  Objective range  [1e+00, 1e+00]
  Bounds range     [1e+00, 1e+00]
  RHS range        [1e+00, 1e+00]
Found heuristic solution: objective 12
Presolve removed 0 rows and 18 columns
Presolve time: 4.91s
Presolved: 70351 rows, 39 columns, 1689887 nonzeros
Variable types: 0 continuous, 39 integer (39 binary)
Presolved: 39 rows, 70390 columns, 1689926 nonzeros


Root simplex log...

Iteration    Objective       Primal Inf.    Dual Inf.      Time
       0   -0.0000000e+00   0.000000e+00   7.035100e+04      5s
     693    7.0000000e+00   0.000000e+00   0.000000e+00      5s
     693    7.0000000e+00   0.000000e+00   0.000000e+00      5s

Root relaxation: objective 7.000000e+00, 693 iterations, 0.44 seconds

    Nodes    |    Current Node    |     Objective Bounds      |     Work
 Expl Unexpl |  Obj  Depth IntInf | Incumbent    BestBd   Gap | It/Node Time

*    0     0               0       7.0000000    7.00000  0.00%     -    5s

Explored 0 nodes (710 simplex iterations) in 5.82 seconds
Thread count was 4 (of 4 available processors)

Solution count 2: 7 12 
Pool objective bound 7

Optimal solution found (tolerance 1.00e-04)
Best objective 7.000000000000e+00, best bound 7.000000000000e+00, gap 0.0000%

Gurobi 7.0.2 (linux64) logging started Thu Jun 22 14:25:01 2017


Gurobi 7.0.2 (linux64) logging started Thu Jun 22 14:30:01 2017


Gurobi 7.0.2 (linux64) logging started Thu Jun 22 14:35:01 2017

Optimize a model with 9653 rows, 67 columns and 310254 nonzeros
Variable types: 0 continuous, 67 integer (67 binary)
Coefficient statistics:
  Matrix range     [1e+00, 1e+00]
  Objective range  [1e+00, 1e+00]
  Bounds range     [1e+00, 1e+00]
  RHS range        [1e+00, 1e+00]
Found heuristic solution: objective 11
Presolve removed 9649 rows and 62 columns
Presolve time: 0.37s
Presolved: 4 rows, 5 columns, 14 nonzeros
Variable types: 0 continuous, 5 integer (5 binary)

Root relaxation: objective 8.000000e+00, 2 iterations, 0.00 seconds

    Nodes    |    Current Node    |     Objective Bounds      |     Work
 Expl Unexpl |  Obj  Depth IntInf | Incumbent    BestBd   Gap | It/Node Time

*    0     0               0       8.0000000    8.00000  0.00%     -    0s

Explored 0 nodes (2 simplex iterations) in 0.37 seconds
Thread count was 4 (of 4 available processors)

Solution count 2: 8 11 
Pool objective bound 8

Optimal solution found (tolerance 1.00e-04)
Best objective 8.000000000000e+00, best bound 8.000000000000e+00, gap 0.0000%

Gurobi 7.0.2 (linux64) logging started Thu Jun 22 14:35:24 2017

Optimize a model with 619 rows, 48 columns and 10416 nonzeros
Variable types: 0 continuous, 48 integer (48 binary)
Coefficient statistics:
  Matrix range     [1e+00, 1e+00]
  Objective range  [1e+00, 1e+00]
  Bounds range     [1e+00, 1e+00]
  RHS range        [1e+00, 1e+00]
Found heuristic solution: objective 11
Presolve removed 615 rows and 44 columns
Presolve time: 0.00s
Presolved: 4 rows, 4 columns, 8 nonzeros
Variable types: 0 continuous, 4 integer (4 binary)

Root relaxation: objective 6.000000e+00, 3 iterations, 0.00 seconds

    Nodes    |    Current Node    |     Objective Bounds      |     Work
 Expl Unexpl |  Obj  Depth IntInf | Incumbent    BestBd   Gap | It/Node Time

*    0     0               0       6.0000000    6.00000  0.00%     -    0s

Explored 0 nodes (3 simplex iterations) in 0.00 seconds
Thread count was 4 (of 4 available processors)

Solution count 2: 6 11 
Pool objective bound 6

Optimal solution found (tolerance 1.00e-04)
Best objective 6.000000000000e+00, best bound 6.000000000000e+00, gap 0.0000%

Gurobi 7.0.2 (linux64) logging started Thu Jun 22 14:35:27 2017

Optimize a model with 2332 rows, 37 columns and 23251 nonzeros
Variable types: 0 continuous, 37 integer (37 binary)
Coefficient statistics:
  Matrix range     [1e+00, 1e+00]
  Objective range  [1e+00, 1e+00]
  Bounds range     [1e+00, 1e+00]
  RHS range        [1e+00, 1e+00]
Found heuristic solution: objective 10
Presolve removed 2321 rows and 27 columns
Presolve time: 0.01s
Presolved: 11 rows, 10 columns, 38 nonzeros
Found heuristic solution: objective 8.0000000
Variable types: 0 continuous, 10 integer (10 binary)

Root relaxation: cutoff, 6 iterations, 0.00 seconds

    Nodes    |    Current Node    |     Objective Bounds      |     Work
 Expl Unexpl |  Obj  Depth IntInf | Incumbent    BestBd   Gap | It/Node Time

     0     0     cutoff    0         8.00000    7.00001  12.5%     -    0s

Explored 0 nodes (6 simplex iterations) in 0.01 seconds
Thread count was 4 (of 4 available processors)

Solution count 2: 8 9 
Pool objective bound 8

Optimal solution found (tolerance 1.00e-04)
Best objective 8.000000000000e+00, best bound 8.000000000000e+00, gap 0.0000%
